(set-info :smt-lib-version 2.6)
(set-logic QF_NIA)
(set-info :source |
Generated by: Cristina Borralleras, Daniel Larraz, Albert Oliveras, Enric Rodriguez-Carbonell, Albert Rubio
Generated on: 2017-04-27
Generator: VeryMax
Application: Termination proving
Target solver: barcelogic
|)
(set-info :license "https://creativecommons.org/licenses/by/4.0/")
(set-info :category "industrial")
(set-info :status unsat)
(declare-fun Nl8arg11 () Int)
(declare-fun Nl8arg21 () Int)
(declare-fun Nl8arg31 () Int)
(declare-fun Nl8arg41 () Int)
(declare-fun Nl8arg51 () Int)
(declare-fun lam0n0 () Int)
(declare-fun lam0n1 () Int)
(declare-fun lam0n2 () Int)
(declare-fun lam0n3 () Int)
(declare-fun lam0n4 () Int)
(declare-fun lam0n5 () Int)
(declare-fun lam0n6 () Int)
(declare-fun lam0n7 () Int)
(declare-fun lam0n8 () Int)
(declare-fun Nl8CT1 () Int)
(declare-fun lam1n0 () Int)
(declare-fun lam1n1 () Int)
(declare-fun lam1n2 () Int)
(declare-fun lam1n3 () Int)
(declare-fun lam1n4 () Int)
(declare-fun lam1n5 () Int)
(declare-fun lam1n6 () Int)
(declare-fun lam1n7 () Int)
(declare-fun lam1n8 () Int)
(declare-fun lam2n0 () Int)
(declare-fun lam2n1 () Int)
(declare-fun lam2n2 () Int)
(declare-fun lam2n3 () Int)
(declare-fun lam2n4 () Int)
(declare-fun lam2n5 () Int)
(declare-fun lam2n6 () Int)
(declare-fun lam2n7 () Int)
(declare-fun lam2n8 () Int)
(declare-fun lam2n9 () Int)
(declare-fun lam2n10 () Int)
(declare-fun lam2n11 () Int)
(declare-fun lam2n12 () Int)
(declare-fun lam2n13 () Int)
(declare-fun lam2n14 () Int)
(declare-fun lam2n15 () Int)
(declare-fun lam2n16 () Int)
(declare-fun lam2n17 () Int)
(declare-fun lam2n18 () Int)
(declare-fun lam2n19 () Int)
(declare-fun lam2n20 () Int)
(declare-fun lam3n0 () Int)
(declare-fun lam3n1 () Int)
(declare-fun lam3n2 () Int)
(declare-fun lam3n3 () Int)
(declare-fun lam3n4 () Int)
(declare-fun lam3n5 () Int)
(declare-fun lam3n6 () Int)
(declare-fun lam3n7 () Int)
(declare-fun lam3n8 () Int)
(declare-fun lam3n9 () Int)
(declare-fun lam3n10 () Int)
(declare-fun lam3n11 () Int)
(declare-fun lam3n12 () Int)
(declare-fun lam3n13 () Int)
(declare-fun lam3n14 () Int)
(declare-fun lam3n15 () Int)
(declare-fun lam3n16 () Int)
(declare-fun lam3n17 () Int)
(declare-fun lam3n18 () Int)
(declare-fun lam3n19 () Int)
(declare-fun lam3n20 () Int)
(declare-fun lam3n21 () Int)
(declare-fun lam4n0 () Int)
(declare-fun lam4n1 () Int)
(declare-fun lam4n2 () Int)
(declare-fun lam4n3 () Int)
(declare-fun lam4n4 () Int)
(declare-fun lam4n5 () Int)
(declare-fun lam4n6 () Int)
(declare-fun lam4n7 () Int)
(declare-fun lam4n8 () Int)
(declare-fun lam4n9 () Int)
(declare-fun lam4n10 () Int)
(declare-fun lam4n11 () Int)
(declare-fun lam4n12 () Int)
(declare-fun lam4n13 () Int)
(declare-fun lam4n14 () Int)
(declare-fun lam4n15 () Int)
(declare-fun lam4n16 () Int)
(declare-fun lam4n17 () Int)
(declare-fun undef1 () Int)
(declare-fun undef16 () Int)
(declare-fun undef17 () Int)
(declare-fun undef104 () Int)
(declare-fun undef105 () Int)
(declare-fun undef107 () Int)
(declare-fun undef159 () Int)
(declare-fun undef2 () Int)
(declare-fun undef18 () Int)
(declare-fun undef23 () Int)
(declare-fun undef111 () Int)
(declare-fun undef160 () Int)
(declare-fun undef106 () Int)
(declare-fun undef108 () Int)
(declare-fun undef24 () Int)
(declare-fun undef25 () Int)
(declare-fun undef31 () Int)
(declare-fun undef32 () Int)
(declare-fun undef112 () Int)
(declare-fun undef113 () Int)
(declare-fun undef115 () Int)
(declare-fun undef119 () Int)
(declare-fun undef120 () Int)
(declare-fun undef121 () Int)
(declare-fun undef114 () Int)
(declare-fun undef116 () Int)
(declare-fun lam8n0 () Int)
(declare-fun lam8n1 () Int)
(declare-fun lam8n2 () Int)
(declare-fun lam8n3 () Int)
(declare-fun lam8n4 () Int)
(declare-fun lam8n5 () Int)
(declare-fun lam8n6 () Int)
(declare-fun lam8n7 () Int)
(declare-fun lam8n8 () Int)
(declare-fun RFN1_CT () Int)
(declare-fun RFN1_arg1 () Int)
(declare-fun RFN1_arg2 () Int)
(declare-fun RFN1_arg3 () Int)
(declare-fun RFN1_arg4 () Int)
(declare-fun RFN1_arg5 () Int)
(declare-fun lam6n0 () Int)
(declare-fun lam6n1 () Int)
(declare-fun lam6n2 () Int)
(declare-fun lam6n3 () Int)
(declare-fun lam6n4 () Int)
(declare-fun lam6n5 () Int)
(declare-fun lam6n6 () Int)
(declare-fun lam6n7 () Int)
(declare-fun lam6n8 () Int)
(declare-fun lam7n0 () Int)
(declare-fun lam7n1 () Int)
(declare-fun lam7n2 () Int)
(declare-fun lam7n3 () Int)
(declare-fun lam7n4 () Int)
(declare-fun lam7n5 () Int)
(declare-fun lam7n6 () Int)
(declare-fun lam7n7 () Int)
(declare-fun lam7n8 () Int)
(declare-fun lam5n0 () Int)
(declare-fun lam5n1 () Int)
(declare-fun lam5n2 () Int)
(declare-fun lam5n3 () Int)
(declare-fun lam5n4 () Int)
(declare-fun lam5n5 () Int)
(declare-fun lam5n6 () Int)
(declare-fun lam5n7 () Int)
(declare-fun lam5n8 () Int)
(assert ( and ( <= ( - 1 ) Nl8arg11 ) ( <= Nl8arg11 1 ) ( <= ( - 1 ) Nl8arg21 ) ( <= Nl8arg21 1 ) ( <= ( - 1 ) Nl8arg31 ) ( <= Nl8arg31 1 ) ( <= ( - 1 ) Nl8arg41 ) ( <= Nl8arg41 1 ) ( <= ( - 1 ) Nl8arg51 ) ( <= Nl8arg51 1 ) ))
(assert ( or ( and ( >= lam0n0 0 ) ( >= lam0n1 0 ) ( >= lam0n2 0 ) ( >= lam0n3 0 ) ( >= lam0n4 0 ) ( >= lam0n5 0 ) ( >= lam0n6 0 ) ( >= lam0n7 0 ) ( >= lam0n8 0 ) ( > ( + ( * 1 lam0n0 ) ( * 1 lam0n1 ) ( * 1 lam0n2 ) ( * 2 lam0n4 ) ( * 2 lam0n5 ) ( * 2 lam0n6 ) ( * 3 lam0n7 ) ( * Nl8CT1 lam0n8 ) ( - 1 ) ) 0 ) ( = ( + ( * ( - 1 ) lam0n0 ) ( * ( - 1 ) lam0n4 ) ( * ( - 1 ) lam0n5 ) ( * ( - 1 ) lam0n6 ) ( * ( - 1 ) lam0n7 ) ( * Nl8arg11 lam0n8 ) ) 0 ) ( = ( + ( * ( - 1 ) lam0n0 ) ( * ( - 1 ) lam0n1 ) ( * ( - 1 ) lam0n4 ) ( * Nl8arg21 lam0n8 ) ) 0 ) ( = ( + ( * 1 lam0n4 ) ( * 1 lam0n5 ) ( * Nl8arg31 lam0n8 ) ) 0 ) ( = ( + ( * 1 lam0n0 ) ( * 1 lam0n6 ) ( * Nl8arg41 lam0n8 ) ) 0 ) ( = ( * Nl8arg51 lam0n8 ) 0 ) ( = ( * ( - 1 ) lam0n2 ) 0 ) ( = ( * ( - 1 ) lam0n3 ) 0 ) ) ( and ( >= lam1n0 0 ) ( >= lam1n1 0 ) ( >= lam1n2 0 ) ( >= lam1n3 0 ) ( >= lam1n4 0 ) ( >= lam1n5 0 ) ( >= lam1n6 0 ) ( >= lam1n7 0 ) ( >= lam1n8 0 ) ( > ( + ( * 1 lam1n0 ) ( * 1 lam1n1 ) ( * 1 lam1n2 ) ( * 2 lam1n4 ) ( * 2 lam1n5 ) ( * 2 lam1n6 ) ( * 3 lam1n7 ) ( * Nl8CT1 lam1n8 ) ( - 1 ( + ( + ( + ( + ( + Nl8CT1 ( * Nl8arg11 0 ) ) ( * Nl8arg21 0 ) ) ( * Nl8arg31 0 ) ) ( * Nl8arg41 0 ) ) ( * Nl8arg51 0 ) ) ) ) 0 ) ( = ( + ( * ( - 1 ) lam1n0 ) ( * ( - 1 ) lam1n4 ) ( * ( - 1 ) lam1n5 ) ( * ( - 1 ) lam1n6 ) ( * ( - 1 ) lam1n7 ) ( * Nl8arg11 lam1n8 ) ) 0 ) ( = ( + ( * ( - 1 ) lam1n0 ) ( * ( - 1 ) lam1n1 ) ( * ( - 1 ) lam1n4 ) ( * Nl8arg21 lam1n8 ) ) 0 ) ( = ( + ( * 1 lam1n4 ) ( * 1 lam1n5 ) ( * Nl8arg31 lam1n8 ) ) 0 ) ( = ( + ( * 1 lam1n0 ) ( * 1 lam1n6 ) ( * Nl8arg41 lam1n8 ) ) 0 ) ( = ( * Nl8arg51 lam1n8 ) 0 ) ( = ( + ( * ( - 1 ) lam1n2 ) ( - ( + 0 ( * Nl8arg11 1 ) ) ) ) 0 ) ( = ( + ( * ( - 1 ) lam1n3 ) ( - ( + 0 ( * Nl8arg21 1 ) ) ) ) 0 ) ( = ( - ( + 0 ( * Nl8arg31 1 ) ) ) 0 ) ( = ( - ( + 0 ( * Nl8arg41 1 ) ) ) 0 ) ( = ( - ( + 0 ( * Nl8arg51 1 ) ) ) 0 ) ) ))
(assert ( or ( and ( <= ( + 1 ( * ( - 1 ) undef1 ) ) 0 ) ( <= ( + 1 ( * ( - 1 ) undef16 ) ) 0 ) ( <= ( + 1 ( * ( - 1 ) undef17 ) ) 0 ) ( not ( <= ( + undef104 undef105 ( * ( - 1 ) undef107 ) ) 0 ) ) ( not ( <= undef105 0 ) ) ( <= ( + 1 ( * ( - 1 ) undef159 ) ) 0 ) ( <= ( + ( - 1 ) ( * ( - 1 ) undef2 ) undef16 ) 0 ) ( <= ( + undef1 ( * ( - 1 ) undef159 ) ) 0 ) ( <= ( + ( * ( - 1 ) undef1 ) undef16 ) 0 ) ( <= ( * ( - 1 ) undef2 ) 0 ) ( <= ( + ( * ( - 1 ) undef2 ) undef17 ) 0 ) ( <= ( + ( * ( - 1 ) undef17 ) undef104 ) 0 ) ( <= ( + ( * ( - 1 ) undef18 ) undef23 ) 0 ) ( <= ( + ( * ( - 1 ) undef18 ) undef111 ) 0 ) ( <= ( * ( - 1 ) undef160 ) 0 ) ( <= ( + 2 ( * ( - 1 ) undef17 ) undef106 ) 0 ) ( <= ( + 2 ( * ( - 1 ) undef17 ) undef107 ) 0 ) ( not ( <= ( + ( - 1 ) undef104 undef105 ( * ( - 1 ) undef106 ) ) 0 ) ) ( not ( <= ( + ( - 1 ) undef104 ( * ( - 1 ) undef106 ) ) 0 ) ) ( not ( <= ( + ( - 1 ) undef104 ( * ( - 1 ) undef107 ) ) 0 ) ) ( not ( <= ( + ( - 2 ) undef104 ) 0 ) ) ( <= ( + ( + ( + ( + ( + ( + Nl8CT1 ( * Nl8arg11 0 ) ) ( * Nl8arg21 0 ) ) ( * Nl8arg31 0 ) ) ( * Nl8arg41 0 ) ) ( * Nl8arg51 0 ) ) ( * ( + 0 ( * Nl8arg11 1 ) ) undef104 ) ( * ( + 0 ( * Nl8arg21 1 ) ) undef105 ) ( * ( + 0 ( * Nl8arg31 1 ) ) undef106 ) ( * ( + 0 ( * Nl8arg41 1 ) ) undef107 ) ( * ( + 0 ( * Nl8arg51 1 ) ) undef108 ) ) 0 ) ) ( and ( <= ( + 1 ( * ( - 1 ) undef1 ) ) 0 ) ( <= ( + 1 ( * ( - 1 ) undef24 ) ) 0 ) ( <= ( + 1 ( * ( - 1 ) undef25 ) ) 0 ) ( <= ( + 1 undef31 ( * ( - 1 ) undef32 ) ) 0 ) ( not ( <= ( + undef104 undef105 ( * ( - 1 ) undef107 ) ) 0 ) ) ( not ( <= undef105 0 ) ) ( <= ( + 1 ( * ( - 1 ) undef159 ) ) 0 ) ( <= ( + ( - 1 ) ( * ( - 1 ) undef2 ) undef24 ) 0 ) ( <= ( + ( - 1 ) ( * ( - 1 ) undef31 ) undef111 ) 0 ) ( <= ( + undef1 ( * ( - 1 ) undef159 ) ) 0 ) ( <= ( + ( * ( - 1 ) undef1 ) undef24 ) 0 ) ( <= ( * ( - 1 ) undef2 ) 0 ) ( <= ( + ( * ( - 1 ) undef2 ) undef25 ) 0 ) ( <= ( + ( * ( - 1 ) undef25 ) undef104 ) 0 ) ( <= ( * ( - 1 ) undef31 ) 0 ) ( <= ( * ( - 1 ) undef160 ) 0 ) ( <= ( + 2 ( * ( - 1 ) undef25 ) undef106 ) 0 ) ( <= ( + 2 ( * ( - 1 ) undef25 ) undef107 ) 0 ) ( not ( <= ( + ( - 1 ) undef104 undef105 ( * ( - 1 ) undef106 ) ) 0 ) ) ( not ( <= ( + ( - 1 ) undef104 ( * ( - 1 ) undef106 ) ) 0 ) ) ( not ( <= ( + ( - 1 ) undef104 ( * ( - 1 ) undef107 ) ) 0 ) ) ( not ( <= ( + ( - 2 ) undef104 ) 0 ) ) ( <= ( + ( + ( + ( + ( + ( + Nl8CT1 ( * Nl8arg11 0 ) ) ( * Nl8arg21 0 ) ) ( * Nl8arg31 0 ) ) ( * Nl8arg41 0 ) ) ( * Nl8arg51 0 ) ) ( * ( + 0 ( * Nl8arg11 1 ) ) undef104 ) ( * ( + 0 ( * Nl8arg21 1 ) ) undef105 ) ( * ( + 0 ( * Nl8arg31 1 ) ) undef106 ) ( * ( + 0 ( * Nl8arg41 1 ) ) undef107 ) ( * ( + 0 ( * Nl8arg51 1 ) ) undef108 ) ) 0 ) ) ( and ( <= ( + 1 ( * ( - 1 ) undef1 ) ) 0 ) ( <= ( + 1 ( * ( - 1 ) undef2 ) ) 0 ) ( not ( <= ( + undef112 undef113 ( * ( - 1 ) undef115 ) ) 0 ) ) ( not ( <= undef113 0 ) ) ( <= ( + 1 undef119 ( * ( - 1 ) undef120 ) ) 0 ) ( <= ( + 1 ( * ( - 1 ) undef120 ) ) 0 ) ( <= ( + 1 ( * ( - 1 ) undef159 ) ) 0 ) ( <= ( + undef1 ( * ( - 1 ) undef159 ) ) 0 ) ( <= ( + ( * ( - 1 ) undef2 ) undef112 ) 0 ) ( <= ( * ( - 1 ) undef119 ) 0 ) ( <= ( * ( - 1 ) undef121 ) 0 ) ( <= ( * ( - 1 ) undef160 ) 0 ) ( <= ( + 2 ( * ( - 1 ) undef2 ) undef114 ) 0 ) ( <= ( + 2 ( * ( - 1 ) undef2 ) undef115 ) 0 ) ( not ( <= ( + ( - 1 ) undef112 undef113 ( * ( - 1 ) undef114 ) ) 0 ) ) ( not ( <= ( + ( - 1 ) undef112 ( * ( - 1 ) undef114 ) ) 0 ) ) ( not ( <= ( + ( - 1 ) undef112 ( * ( - 1 ) undef115 ) ) 0 ) ) ( not ( <= ( + ( - 2 ) undef112 ) 0 ) ) ( <= ( + ( + ( + ( + ( + ( + Nl8CT1 ( * Nl8arg11 0 ) ) ( * Nl8arg21 0 ) ) ( * Nl8arg31 0 ) ) ( * Nl8arg41 0 ) ) ( * Nl8arg51 0 ) ) ( * ( + 0 ( * Nl8arg11 1 ) ) undef112 ) ( * ( + 0 ( * Nl8arg21 1 ) ) undef113 ) ( * ( + 0 ( * Nl8arg31 1 ) ) undef114 ) ( * ( + 0 ( * Nl8arg41 1 ) ) undef115 ) ( * ( + 0 ( * Nl8arg51 1 ) ) undef116 ) ) 0 ) ) ))
(assert ( or ( and ( and ( >= lam8n0 0 ) ( >= lam8n1 0 ) ( >= lam8n2 0 ) ( >= lam8n3 0 ) ( >= lam8n4 0 ) ( >= lam8n5 0 ) ( >= lam8n6 0 ) ( >= lam8n7 0 ) ( >= lam8n8 0 ) ( > ( + ( * 1 lam8n0 ) ( * 1 lam8n1 ) ( * 1 lam8n2 ) ( * 2 lam8n4 ) ( * 2 lam8n5 ) ( * 2 lam8n6 ) ( * 3 lam8n7 ) ( * Nl8CT1 lam8n8 ) ( - 1 ( - ( + ( + ( + ( + ( + RFN1_CT ( * RFN1_arg1 0 ) ) ( * RFN1_arg2 0 ) ) ( * RFN1_arg3 0 ) ) ( * RFN1_arg4 0 ) ) ( * RFN1_arg5 0 ) ) RFN1_CT ) ) ) 0 ) ( = ( + ( * ( - 1 ) lam8n0 ) ( * ( - 1 ) lam8n4 ) ( * ( - 1 ) lam8n5 ) ( * ( - 1 ) lam8n6 ) ( * ( - 1 ) lam8n7 ) ( * Nl8arg11 lam8n8 ) ( - ( - RFN1_arg1 ) ) ) 0 ) ( = ( + ( * ( - 1 ) lam8n0 ) ( * ( - 1 ) lam8n1 ) ( * ( - 1 ) lam8n4 ) ( * Nl8arg21 lam8n8 ) ( - ( - RFN1_arg2 ) ) ) 0 ) ( = ( + ( * 1 lam8n4 ) ( * 1 lam8n5 ) ( * Nl8arg31 lam8n8 ) ( - ( - RFN1_arg3 ) ) ) 0 ) ( = ( + ( * 1 lam8n0 ) ( * 1 lam8n6 ) ( * Nl8arg41 lam8n8 ) ( - ( - RFN1_arg4 ) ) ) 0 ) ( = ( + ( * Nl8arg51 lam8n8 ) ( - ( - RFN1_arg5 ) ) ) 0 ) ( = ( + ( * ( - 1 ) lam8n2 ) ( - ( + 0 ( * RFN1_arg1 1 ) ) ) ) 0 ) ( = ( + ( * ( - 1 ) lam8n3 ) ( - ( + 0 ( * RFN1_arg2 1 ) ) ) ) 0 ) ( = ( - ( + 0 ( * RFN1_arg3 1 ) ) ) 0 ) ( = ( - ( + 0 ( * RFN1_arg4 1 ) ) ) 0 ) ( = ( - ( + 0 ( * RFN1_arg5 1 ) ) ) 0 ) ) ( and ( and ( >= lam6n0 0 ) ( >= lam6n1 0 ) ( >= lam6n2 0 ) ( >= lam6n3 0 ) ( >= lam6n4 0 ) ( >= lam6n5 0 ) ( >= lam6n6 0 ) ( >= lam6n7 0 ) ( >= lam6n8 0 ) ( > ( + ( * 1 lam6n0 ) ( * 1 lam6n1 ) ( * 1 lam6n2 ) ( * 2 lam6n4 ) ( * 2 lam6n5 ) ( * 2 lam6n6 ) ( * 3 lam6n7 ) ( * Nl8CT1 lam6n8 ) ( - 1 ( - RFN1_CT ) ) ) 0 ) ( = ( + ( * ( - 1 ) lam6n0 ) ( * ( - 1 ) lam6n4 ) ( * ( - 1 ) lam6n5 ) ( * ( - 1 ) lam6n6 ) ( * ( - 1 ) lam6n7 ) ( * Nl8arg11 lam6n8 ) ( - ( - RFN1_arg1 ) ) ) 0 ) ( = ( + ( * ( - 1 ) lam6n0 ) ( * ( - 1 ) lam6n1 ) ( * ( - 1 ) lam6n4 ) ( * Nl8arg21 lam6n8 ) ( - ( - RFN1_arg2 ) ) ) 0 ) ( = ( + ( * 1 lam6n4 ) ( * 1 lam6n5 ) ( * Nl8arg31 lam6n8 ) ( - ( - RFN1_arg3 ) ) ) 0 ) ( = ( + ( * 1 lam6n0 ) ( * 1 lam6n6 ) ( * Nl8arg41 lam6n8 ) ( - ( - RFN1_arg4 ) ) ) 0 ) ( = ( + ( * Nl8arg51 lam6n8 ) ( - ( - RFN1_arg5 ) ) ) 0 ) ( = ( * ( - 1 ) lam6n2 ) 0 ) ( = ( * ( - 1 ) lam6n3 ) 0 ) ) ( and ( >= lam7n0 0 ) ( >= lam7n1 0 ) ( >= lam7n2 0 ) ( >= lam7n3 0 ) ( >= lam7n4 0 ) ( >= lam7n5 0 ) ( >= lam7n6 0 ) ( >= lam7n7 0 ) ( >= lam7n8 0 ) ( > ( + ( * 1 lam7n0 ) ( * 1 lam7n1 ) ( * 1 lam7n2 ) ( * 2 lam7n4 ) ( * 2 lam7n5 ) ( * 2 lam7n6 ) ( * 3 lam7n7 ) ( * Nl8CT1 lam7n8 ) ( - 1 ( + ( - ( + ( + ( + ( + ( + RFN1_CT ( * RFN1_arg1 0 ) ) ( * RFN1_arg2 0 ) ) ( * RFN1_arg3 0 ) ) ( * RFN1_arg4 0 ) ) ( * RFN1_arg5 0 ) ) RFN1_CT ) 1 ) ) ) 0 ) ( = ( + ( * ( - 1 ) lam7n0 ) ( * ( - 1 ) lam7n4 ) ( * ( - 1 ) lam7n5 ) ( * ( - 1 ) lam7n6 ) ( * ( - 1 ) lam7n7 ) ( * Nl8arg11 lam7n8 ) ( - ( - RFN1_arg1 ) ) ) 0 ) ( = ( + ( * ( - 1 ) lam7n0 ) ( * ( - 1 ) lam7n1 ) ( * ( - 1 ) lam7n4 ) ( * Nl8arg21 lam7n8 ) ( - ( - RFN1_arg2 ) ) ) 0 ) ( = ( + ( * 1 lam7n4 ) ( * 1 lam7n5 ) ( * Nl8arg31 lam7n8 ) ( - ( - RFN1_arg3 ) ) ) 0 ) ( = ( + ( * 1 lam7n0 ) ( * 1 lam7n6 ) ( * Nl8arg41 lam7n8 ) ( - ( - RFN1_arg4 ) ) ) 0 ) ( = ( + ( * Nl8arg51 lam7n8 ) ( - ( - RFN1_arg5 ) ) ) 0 ) ( = ( + ( * ( - 1 ) lam7n2 ) ( - ( + 0 ( * RFN1_arg1 1 ) ) ) ) 0 ) ( = ( + ( * ( - 1 ) lam7n3 ) ( - ( + 0 ( * RFN1_arg2 1 ) ) ) ) 0 ) ( = ( - ( + 0 ( * RFN1_arg3 1 ) ) ) 0 ) ( = ( - ( + 0 ( * RFN1_arg4 1 ) ) ) 0 ) ( = ( - ( + 0 ( * RFN1_arg5 1 ) ) ) 0 ) ) ) ) ( and ( >= lam5n0 0 ) ( >= lam5n1 0 ) ( >= lam5n2 0 ) ( >= lam5n3 0 ) ( >= lam5n4 0 ) ( >= lam5n5 0 ) ( >= lam5n6 0 ) ( >= lam5n7 0 ) ( >= lam5n8 0 ) ( > ( + ( * 1 lam5n0 ) ( * 1 lam5n1 ) ( * 1 lam5n2 ) ( * 2 lam5n4 ) ( * 2 lam5n5 ) ( * 2 lam5n6 ) ( * 3 lam5n7 ) ( * Nl8CT1 lam5n8 ) ( - 1 ) ) 0 ) ( = ( + ( * ( - 1 ) lam5n0 ) ( * ( - 1 ) lam5n4 ) ( * ( - 1 ) lam5n5 ) ( * ( - 1 ) lam5n6 ) ( * ( - 1 ) lam5n7 ) ( * Nl8arg11 lam5n8 ) ) 0 ) ( = ( + ( * ( - 1 ) lam5n0 ) ( * ( - 1 ) lam5n1 ) ( * ( - 1 ) lam5n4 ) ( * Nl8arg21 lam5n8 ) ) 0 ) ( = ( + ( * 1 lam5n4 ) ( * 1 lam5n5 ) ( * Nl8arg31 lam5n8 ) ) 0 ) ( = ( + ( * 1 lam5n0 ) ( * 1 lam5n6 ) ( * Nl8arg41 lam5n8 ) ) 0 ) ( = ( * Nl8arg51 lam5n8 ) 0 ) ( = ( * ( - 1 ) lam5n2 ) 0 ) ( = ( * ( - 1 ) lam5n3 ) 0 ) ) ))
(check-sat)
(exit)
